
******************************************************************************
This program contains Ipopt, a library for large-scale nonlinear optimization.
 Ipopt is released as open source code under the Eclipse Public License (EPL).
         For more information visit https://github.com/coin-or/Ipopt
******************************************************************************

This is Ipopt version 3.14.16, running with linear solver MUMPS 5.7.1.

Number of nonzeros in equality constraint Jacobian...:    96580
Number of nonzeros in inequality constraint Jacobian.:        0
Number of nonzeros in Lagrangian Hessian.............:    58431

Total number of variables............................:      501
                     variables with only lower bounds:        0
                variables with lower and upper bounds:      501
                     variables with only upper bounds:        0
Total number of equality constraints.................:      200
Total number of inequality constraints...............:        0
        inequality constraints with only lower bounds:        0
   inequality constraints with lower and upper bounds:        0
        inequality constraints with only upper bounds:        0

iter    objective    inf_pr   inf_du lg(mu)  ||d||  lg(rg) alpha_du alpha_pr  ls
   0  5.1698925e-04 5.17e+02 3.92e-05  -1.0 0.00e+00    -  0.00e+00 0.00e+00   0
   1  4.8490462e-01 4.73e+01 1.12e+00  -1.0 4.55e+00    -  6.95e-01 1.00e+00h  1
   2  5.7126547e-01 4.41e+00 2.24e+01  -1.0 4.15e-01   2.0 9.89e-01 1.00e+00h  1
   3  5.8040837e-01 1.21e-01 1.19e+01  -1.0 4.58e-02   2.4 1.00e+00 1.00e+00h  1
   4  5.8035181e-01 2.54e-05 6.93e-02  -1.0 7.82e-04   1.9 1.00e+00 1.00e+00h  1
   5  5.8025493e-01 4.38e-06 1.03e-02  -2.5 3.48e-04   1.5 1.00e+00 1.00e+00h  1
   6  5.7996236e-01 4.02e-05 1.03e-02  -3.8 1.04e-03   1.0 1.00e+00 1.00e+00h  1
   7  5.7908703e-01 3.60e-04 1.03e-02  -3.8 3.14e-03   0.5 1.00e+00 1.00e+00h  1
   8  5.7648224e-01 3.20e-03 1.03e-02  -3.8 9.41e-03   0.0 1.00e+00 1.00e+00h  1
   9  5.6885047e-01 2.73e-02 1.03e-02  -3.8 2.82e-02  -0.4 1.00e+00 1.00e+00h  1
iter    objective    inf_pr   inf_du lg(mu)  ||d||  lg(rg) alpha_du alpha_pr  ls
  10  5.4742114e-01 1.99e-01 9.80e-03  -3.8 8.35e-02  -0.9 1.00e+00 1.00e+00h  1
  11  4.9395438e-01 7.51e-01 7.14e-03  -3.8 2.12e-01  -1.4 1.00e+00 1.00e+00h  1
  12  4.7857755e-01 9.85e-02 7.52e-03  -3.8 6.99e-02  -1.0 1.00e+00 1.00e+00h  1
  13  4.3730159e-01 7.77e-01 6.45e-03  -3.8 1.84e-01  -1.4 1.00e+00 1.00e+00h  1
  14  4.2260403e-01 9.75e-02 6.65e-03  -3.8 6.89e-02  -1.0 1.00e+00 1.00e+00h  1
  15  3.8237428e-01 1.95e+00 6.13e-03  -3.8 2.78e-01  -1.5 1.00e+00 1.00e+00h  1
  16  3.1027806e-01 1.00e+01 5.74e-03  -3.8 1.29e+00  -2.0 1.00e+00 1.00e+00h  1
  17  2.9798605e-01 5.59e-01 5.26e-03  -3.8 1.77e-01  -1.5 1.00e+00 1.00e+00h  1
  18  2.4888269e-01 4.05e+00 3.53e-03  -3.8 5.34e-01  -2.0 1.00e+00 1.00e+00h  1
  19  2.3530357e-01 1.08e-01 3.33e-03  -3.8 1.32e-01  -1.6 1.00e+00 1.00e+00h  1
iter    objective    inf_pr   inf_du lg(mu)  ||d||  lg(rg) alpha_du alpha_pr  ls
  20  2.0261572e-01 8.21e-01 3.00e-03  -3.8 4.20e-01  -2.1 1.00e+00 1.00e+00h  1
  21  1.9198911e-01 1.73e-01 2.90e-03  -3.8 1.29e-01  -1.6 1.00e+00 1.00e+00h  1
  22  1.6972596e-01 1.28e+00 2.63e-03  -3.8 3.55e-01  -2.1 1.00e+00 1.00e+00h  1
  23  1.6248305e-01 6.17e-02 2.57e-03  -3.8 1.28e-01  -1.7 1.00e+00 1.00e+00h  1
  24  1.4637685e-01 1.20e+00 2.19e-03  -3.8 3.31e-01  -2.2 1.00e+00 1.00e+00h  1
  25  1.4095766e-01 5.14e-02 2.07e-03  -3.8 1.17e-01  -1.7 1.00e+00 1.00e+00h  1
  26  1.2954139e-01 5.78e-01 1.62e-03  -3.8 2.75e-01  -2.2 1.00e+00 1.00e+00h  1
  27  1.2542853e-01 5.81e-02 1.46e-03  -3.8 9.24e-02  -1.8 1.00e+00 1.00e+00h  1
  28  1.1674413e-01 1.91e+00 1.31e-03  -3.8 3.10e-01  -2.3 1.00e+00 1.00e+00h  1
  29  1.1316111e-01 3.99e-01 1.30e-03  -3.8 1.08e-01  -1.9 1.00e+00 1.00e+00h  1
iter    objective    inf_pr   inf_du lg(mu)  ||d||  lg(rg) alpha_du alpha_pr  ls
  30  1.0493606e-01 7.31e+00 1.28e-03  -3.8 4.73e-01  -2.3 1.00e+00 1.00e+00h  1
  31  9.5209432e-02 2.24e+01 8.90e-04  -3.8 2.16e+00  -2.8 1.00e+00 1.00e+00h  1
  32  9.3519498e-02 3.04e+00 1.39e-03  -3.8 2.66e-01  -2.4 1.00e+00 1.00e+00h  1
  33  9.3197315e-02 9.02e-02 6.81e-04  -3.8 6.07e-02  -2.0 1.00e+00 1.00e+00h  1
  34  9.0679068e-02 4.58e-01 6.21e-04  -3.8 1.72e-01  -2.4 1.00e+00 1.00e+00h  1
  35  8.5474349e-02 4.40e+00 5.17e-04  -3.8 6.63e-01  -2.9 1.00e+00 1.00e+00h  1
  36  8.4314126e-02 2.19e-01 4.83e-04  -3.8 1.47e-01  -2.5 1.00e+00 1.00e+00h  1
  37  8.1365956e-02 1.51e+00 4.28e-04  -3.8 3.92e-01  -3.0 1.00e+00 1.00e+00h  1
  38  7.6534673e-02 1.12e+01 1.54e-03  -3.8 1.67e+00  -3.4 1.00e+00 1.00e+00h  1
  39  7.4985792e-02 1.76e+01 5.38e-04  -3.8 9.85e-01  -3.0 1.00e+00 1.00e+00h  1
iter    objective    inf_pr   inf_du lg(mu)  ||d||  lg(rg) alpha_du alpha_pr  ls
  40  7.4630422e-02 2.94e+00 5.81e-04  -3.8 1.91e-01  -2.6 1.00e+00 1.00e+00h  1
  41  7.3845098e-02 2.14e+00 2.63e-04  -3.8 3.04e-01  -3.1 1.00e+00 1.00e+00h  1
  42  7.3349626e-02 2.35e+01 1.83e-03  -3.8 3.83e+00  -3.5 1.00e+00 5.00e-01h  2
  43  6.9414350e-02 2.49e+01 1.37e-03  -3.8 1.07e+00  -3.1 1.00e+00 1.00e+00h  1
  44  7.1389645e-02 1.25e+01 3.40e-03  -3.8 3.24e-01  -1.8 1.00e+00 5.00e-01h  2
  45  7.1047402e-02 1.30e+01 2.71e-03  -3.8 3.83e-01  -2.3 1.00e+00 1.00e+00h  1
  46  7.0578973e-02 4.60e+00 8.16e-04  -3.8 2.97e-01  -2.7 1.00e+00 1.00e+00h  1
  47  7.0671744e-02 1.03e+00 2.11e-04  -3.8 3.30e-01  -3.2 1.00e+00 1.00e+00h  1
  48  6.9924256e-02 2.33e+00 1.27e-04  -3.8 6.78e-01  -3.7 1.00e+00 1.00e+00h  1
  49  6.9814605e-02 1.88e-01 8.44e-05  -3.8 1.56e-01  -3.3 1.00e+00 1.00e+00h  1
iter    objective    inf_pr   inf_du lg(mu)  ||d||  lg(rg) alpha_du alpha_pr  ls
  50  6.9522327e-02 6.58e-01 6.94e-05  -3.8 3.84e-01  -3.7 1.00e+00 1.00e+00h  1
  51  6.9410212e-02 1.26e-01 6.28e-05  -3.8 1.30e-01  -3.3 1.00e+00 1.00e+00h  1
  52  6.9406608e-02 8.79e+00 2.65e-04  -3.8 4.37e+00  -3.8 1.00e+00 2.50e-01h  3
  53  6.9350320e-02 8.75e-01 2.77e-04  -3.8 1.16e-01  -2.5 1.00e+00 1.00e+00h  1
  54  6.9247679e-02 4.07e-01 1.40e-04  -3.8 1.42e-01  -2.9 1.00e+00 1.00e+00h  1
  55  6.9123320e-02 1.68e-01 6.94e-05  -3.8 1.83e-01  -3.4 1.00e+00 1.00e+00h  1
  56  6.8921178e-02 5.97e-01 8.42e-05  -3.8 7.29e-01  -3.9 1.00e+00 1.00e+00h  1
  57  6.8870567e-02 3.53e+00 1.62e-04  -3.8 3.57e+00  -4.4 1.00e+00 2.50e-01h  3
  58  6.8519110e-02 7.16e-01 1.56e-04  -3.8 1.73e-01  -3.0 1.00e+00 1.00e+00h  1
  59  6.8334759e-02 4.48e-01 2.04e-04  -3.8 5.74e-01  -3.5 1.00e+00 1.00e+00h  1
iter    objective    inf_pr   inf_du lg(mu)  ||d||  lg(rg) alpha_du alpha_pr  ls
  60  6.7932316e-02 1.00e+00 1.41e-04  -3.8 1.58e+00  -4.0 1.00e+00 1.00e+00h  1
  61  6.7557257e-02 8.13e-01 4.72e-05  -3.8 1.86e+00  -4.5 1.00e+00 1.00e+00h  1
  62  6.7425380e-02 2.67e+00 1.37e-04  -3.8 5.06e-01  -4.1 1.00e+00 1.00e+00h  1
  63  6.7354453e-02 2.77e-01 1.13e-05  -3.8 6.45e-01    -  1.00e+00 1.00e+00h  1
  64  6.7351133e-02 6.84e-02 6.29e-07  -3.8 7.20e-02    -  1.00e+00 1.00e+00h  1
  65  6.7350722e-02 1.76e-03 1.74e-08  -3.8 1.27e-02    -  1.00e+00 1.00e+00h  1
  66  6.7349278e-02 1.65e-04 5.15e-09  -5.7 1.07e-02    -  1.00e+00 1.00e+00h  1
  67  6.7349263e-02 2.61e-10 4.84e-14  -5.7 1.92e-05    -  1.00e+00 1.00e+00h  1
  68  6.7349263e-02 2.56e-08 7.98e-13  -8.6 1.33e-04    -  1.00e+00 1.00e+00h  1
  69  6.7349263e-02 1.08e-11 9.37e-18  -9.0 1.18e-07    -  1.00e+00 1.00e+00h  1

Number of Iterations....: 69

                                   (scaled)                 (unscaled)
Objective...............:   6.7349262739712201e-02    6.7349262739712201e-02
Dual infeasibility......:   9.3652111476195282e-18    9.3652111476195282e-18
Constraint violation....:   8.2943913461666564e-14    1.0771071534687593e-11
Variable bound violation:   0.0000000000000000e+00    0.0000000000000000e+00
Complementarity.........:   9.0909092334588827e-10    9.0909092334588827e-10
Overall NLP error.......:   9.0909092334588827e-10    9.0909092334588827e-10


Number of objective function evaluations             = 79
Number of objective gradient evaluations             = 70
Number of equality constraint evaluations            = 79
Number of inequality constraint evaluations          = 0
Number of equality constraint Jacobian evaluations   = 70
Number of inequality constraint Jacobian evaluations = 0
Number of Lagrangian Hessian evaluations             = 69
Total seconds in IPOPT                               = 3.468

EXIT: Optimal Solution Found.
